Version identifier: 22.1.0.0 | 2022-03-09 | 1a383f8ce
CPXPARAM_Read_DataCheck                          1
Tried aggregator 3 times.
MIP Presolve eliminated 25454 rows and 3291 columns.
MIP Presolve modified 433 coefficients.
Aggregator did 22668 substitutions.
Reduced MIP has 3706 rows, 23649 columns, and 50989 nonzeros.
Reduced MIP has 23625 binaries, 24 generals, 0 SOSs, and 0 indicators.
Presolve time = 0.21 sec. (218.78 ticks)
Tried aggregator 1 time.
Detecting symmetries...
Reduced MIP has 3706 rows, 23649 columns, and 50989 nonzeros.
Reduced MIP has 23625 binaries, 24 generals, 0 SOSs, and 0 indicators.
Presolve time = 0.04 sec. (36.18 ticks)
Probing fixed 37 vars, tightened 0 bounds.
Probing changed sense of 5 constraints.
Probing time = 0.07 sec. (7.73 ticks)
Clique table members: 48210.
MIP emphasis: balance optimality and feasibility.
MIP search method: dynamic search.
Parallel mode: deterministic, using up to 8 threads.
Root relaxation solution time = 0.29 sec. (183.90 ticks)

        Nodes                                         Cuts/
   Node  Left     Objective  IInf  Best Integer    Best Bound    ItCnt     Gap

      0     0       24.3836  2715                     24.3836     3364         
      0     0       38.0000   476                    Cuts: 40     6189         
      0     0       38.0000   631                    Cuts: 57     9258         
*     0+    0                           42.0000       38.0000             9.52%
      0     2       38.0000   611       42.0000       38.0000     9258    9.52%
Elapsed time = 29.55 sec. (14157.75 ticks, tree = 0.02 MB, solutions = 1)
      1     3       38.0000   252       42.0000       38.0000    11431    9.52%
      2     3       38.0000   433       42.0000       38.0000    13675    9.52%
      3     4       38.0000   276       42.0000       38.0000    13596    9.52%
      4     4       38.0000   354       42.0000       38.0000    14827    9.52%
      5     5       38.0000   331       42.0000       38.0000    18363    9.52%
      7     6       38.0000   282       42.0000       38.0000    18861    9.52%
      9     6       38.0000   306       42.0000       38.0000    21844    9.52%
     13    13       38.0000   329       42.0000       38.0000    35781    9.52%
     16    14       38.0512   911       42.0000       38.0000    45679    9.52%
     31    20       38.0000   644       42.0000       38.0000    62862    9.52%
Elapsed time = 41.12 sec. (19528.86 ticks, tree = 0.06 MB, solutions = 1)
     63    36       38.0000   675       42.0000       38.0000    92804    9.52%
*    94+   62                           40.0000       38.0000             5.00%
    105    94       38.0000   544       40.0000       38.0000   202878    5.00%
*   114    70      integral     0       39.0000       38.0000   159933    2.56%
    160    65       38.0000   288       39.0000       38.0000   214278    2.56%
    219    47    infeasible             39.0000       38.0000   263742    2.56%
    261    63    infeasible             39.0000       38.0000   313910    2.56%
    288    59        cutoff             39.0000       38.0000   328064    2.56%
    306    14    infeasible             39.0000       38.0000   410531    2.56%

Clique cuts applied:  3
Cover cuts applied:  1
Zero-half cuts applied:  46
Lift and project cuts applied:  5
Gomory fractional cuts applied:  16

Root node processing (before b&c):
  Real time             =   29.49 sec. (14136.54 ticks)
Parallel b&c, 8 threads:
  Real time             =   34.75 sec. (13153.71 ticks)
  Sync time (average)   =    9.37 sec.
  Wait time (average)   =    0.00 sec.
                          ------------
Total (root+branch&cut) =   64.24 sec. (27290.25 ticks)
